Alphabet = {A,C,G,T};
ns = 10;
nc = 8;
neighbours = [| I(C),I(A),I(C),I(A),I(C),I(T),Null,Null | I(A),I(G),I(T),I(A),I(T),I(A),Null,Null | I(A),I(T),Null,Null,Null,Null,Null,Null | I(G),I(C),I(G),I(C),I(T),I(C),I(C),I(T) | I(G),I(T),I(G),I(C),I(T),I(G),I(T),Null | I(T),Null,Null,Null,Null,Null,Null,Null | I(G),I(A),I(G),I(T),I(C),I(G),I(A),Null | I(G),I(C),I(G),Null,Null,Null,Null,Null | I(T),Null,Null,Null,Null,Null,Null,Null | I(C),I(T),Null,Null,Null,Null,Null,Null |];
